4294967293,131
4294967293,130
4294967293,129
4294967293,128
4294967293,127
4294967293,126
4294967293,125
4294967293,124
4294967293,123
4294967293,122
4294967293,121
4294967293,120
4294967293,119
4294967293,118
4294967293,117
4294967293,116
4294967293,115
4294967293,114
4294967293,113
4294967293,112
4294967293,111
4294967293,110
4294967293,109
4294967293,108
4294967293,107
4294967293,106
4294967293,105
4294967293,104
4294967293,103
4294967293,102
4294967293,101
4294967293,100
4294967293,99
4294967293,98
4294967293,97
4294967293,96
4294967293,95
4294967293,94
4294967293,93
4294967293,92
4294967293,91
4294967293,90
4294967293,89
4294967293,87
4294967293,86
4294967293,85
4294967293,84
4294967293,83
4294967293,82
4294967293,81
4294967293,80
4294967293,79
4294967293,78
4294967293,77
4294967293,76
4294967293,75
4294967293,74
4294967293,73
4294967293,72
4294967293,71
4294967293,70
4294967293,69
4294967293,68
4294967293,67
4294967293,66
4294967293,65
4294967293,64
4294967293,63
4294967293,62
4294967293,61
4294967293,60
4294967293,59
4294967293,58
4294967293,57
4294967293,56
4294967293,55
4294967293,54
4294967293,53
4294967293,52
4294967293,51
4294967293,50
4294967293,49
4294967293,48
4294967293,47
4294967293,46
4294967293,45
4294967293,44
4294967293,43
4294967293,42
4294967293,41
4294967293,40
4294967293,39
4294967293,38
4294967293,37
4294967293,36
4294967293,35
4294967293,34
4294967293,33
4294967293,32
4294967293,31
4294967293,30
4294967293,29
4294967293,28
4294967293,27
4294967293,26
4294967293,25
4294967293,24
4294967293,23
4294967293,22
4294967293,21
4294967293,20
4294967293,19
4294967293,18
4294967293,17
4294967293,16
4294967293,15
4294967293,14
4294967293,13
4294967293,12
4294967293,11
4294967293,10
4294967293,9
4294967293,8
4294967293,7
4294967293,6
4294967293,5
4294967293,4
4294967293,3
4294967278,129
4294967278,123
4294967278,116
4294967278,110
4294967278,109
4294967278,108
4294967278,107
4294967278,78
4294967278,75
4294967278,73
4294967278,71
4294967278,69
4294967278,68
4294967278,62
4294967278,55
4294967278,49
4294967278,2
4294967278,174
4294967278,260
4294967278,16
4294967278,13
4294967278,7
4294967278,4
4294967279,131
4294967279,130
4294967279,129
4294967279,126
4294967279,123
4294967279,120
4294967279,117
4294967279,116
4294967279,114
4294967279,113
4294967279,112
4294967279,110
4294967279,109
4294967279,108
4294967279,107
4294967279,105
4294967279,104
4294967279,103
4294967279,80
4294967279,79
4294967279,77
4294967279,76
4294967279,75
4294967279,73
4294967279,70
4294967279,69
4294967279,68
4294967279,67
4294967279,66
4294967279,64
4294967279,63
4294967279,62
4294967279,61
4294967279,60
4294967279,59
4294967279,58
4294967279,57
4294967279,56
4294967279,55
4294967279,53
4294967279,52
4294967279,50
4294967279,49
4294967279,47
4294967279,45
4294967279,42
4294967279,2
4294967279,18
4294967279,17
4294967279,16
4294967279,15
4294967279,14
4294967279,13
4294967279,12
4294967279,11
4294967279,10
4294967279,9
4294967279,8
4294967279,7
4294967279,6
4294967279,5
4294967279,4
4294967294,432
4294967294,431
4294967294,445
4294967294,544
4294967294,537
4294967294,187
4294967294,656
4294967294,885
4294967294,651
21,0
4294967294,531
4294967294,387
4294967294,650
4294967294,183
4294967294,604
4294967294,603
4294967294,571
4294967294,602
4294967294,601
4294967294,185
4294967294,600
4294967294,1239
4294967294,599
4294967294,644
4294967294,598
4294967294,573
4294967294,575
4294967294,597
4294967294,574
4294967294,572
4294967278,363
4294967278,362
4294967279,373
4294967279,372
4294967278,361
4294967278,360
4294967279,371
4294967294,570
4294967294,595
4294967294,519
4294967294,594
4294967294,593
4294967294,557
4294967294,592
4294967294,591
4294967294,556
4294967294,527
4294967294,1052
4294967294,565
4294967294,530
4294967294,560
4294967294,587
4294967294,555
4294967294,533
4294967294,536
4294967294,586
4294967294,643
4294967294,391
4294967294,529
4294967294,189
4294967294,554
4294967294,179
4294967294,191
4294967294,329
4294967294,328
4294967294,327
4294967294,326
4294967294,325
4294967294,323
4294967294,324
4294967294,322
4294967294,321
4294967294,320
4294967294,319
4294967294,318
4294967294,317
4294967294,316
4294967294,315
4294967294,314
4294967294,313
4294967294,539
4294967294,444
4294967294,550
4294967294,833
4294967294,397
4294967294,398
4294967294,389
4294967294,96
4294967294,396
4294967294,385
4294967294,394
4294967294,45
4294967294,44
4294967294,312
4294967294,311
4294967294,310
4294967294,309
4294967294,308
4294967294,306
4294967294,307
4294967294,305
4294967294,304
4294967294,53
4294967294,303
4294967294,302
4294967294,301
4294967294,300
4294967294,299
4294967294,298
4294967294,297
4294967294,296
4294967279,368
4294967279,367
4294967279,366
4294967279,363
4294967279,362
4294967279,357
4294967279,356
4294967278,350
4294967279,355
4294967279,354
4294967279,353
4294967279,352
4294967279,351
4294967279,350
4294967279,349
4294967279,348
4294967279,347
4294967279,345
4294967279,344
4294967279,343
4294967278,349
4294967278,348
4294967278,347
4294967278,345
4294967278,344
4294967279,342
4294967278,343
4294967278,342
4294967278,341
4294967279,341
4294967278,340
4294967278,339
4294967278,338
4294967278,337
4294967278,336
4294967278,335
4294967279,337
4294967278,334
4294967279,340
4294967279,339
4294967279,338
4294967278,333
4294967279,336
4294967278,332
4294967279,335
4294967279,311
4294967278,316
4294967279,310
4294967278,315
4294967279,309
4294967278,314
4294967279,307
4294967278,312
4294967278,311
4294967278,310
4294967279,306
4294967279,305
4294967278,309
4294967278,308
4294967279,293
4294967279,287
4294967278,290
4294967278,289
4294967279,285
4294967278,288
4294967279,283
4294967278,286
4294967278,285
4294967279,282
4294967279,281
4294967279,280
4294967279,279
4294967279,278
4294967279,277
4294967279,276
4294967279,275
4294967279,274
4294967279,273
4294967279,272
4294967278,273
4294967279,271
4294967279,270
4294967278,267
4294967279,232
4294967278,233
4294967279,231
4294967278,232
4294967279,192
4294967279,191
4294967278,192
4294967279,189
4294967279,188
4294967278,189
4294967279,185
4294967278,186
4294967278,185
4294967279,182
4294967279,181
4294967279,180
4294967279,179
4294967279,178
4294967279,176
4294967279,175
4294967279,172
4294967279,171
4294967279,167
4294967279,166
4294967279,164
4294967279,163
4294967279,161
4294967279,160
4294967279,158
4294967294,295
4294967294,294
4294967294,293
4294967294,292
4294967294,291
4294967294,289
4294967294,290
4294967294,288
4294967294,287
4294967294,286
4294967294,285
4294967294,284
4294967294,283
4294967294,282
4294967294,281
4294967294,280
4294967294,279
4294967294,278
4294967294,277
4294967294,276
4294967294,275
4294967294,274
4294967294,272
4294967294,273
4294967294,271
4294967294,270
4294967294,269
4294967294,268
4294967294,267
4294967294,266
4294967294,265
4294967294,264
4294967294,263
4294967294,262
4294967294,261
4294967294,260
4294967294,259
4294967294,258
4294967294,257
4294967294,255
4294967294,256
4294967294,254
4294967294,253
4294967294,252
4294967294,251
4294967294,250
4294967294,249
4294967294,248
4294967294,247
4294967294,246
4294967294,245
4294967294,244
4294967294,243
4294967294,242
4294967294,241
4294967294,240
4294967294,238
4294967294,239
4294967294,237
4294967294,236
4294967294,235
4294967294,234
4294967294,233
4294967294,232
4294967294,231
4294967294,230
4294967294,229
4294967294,228
4294967294,227
4294967294,226
4294967294,225
4294967294,224
4294967294,223
4294967294,221
4294967294,222
4294967294,220
4294967294,219
4294967294,218
4294967294,217
4294967294,216
4294967294,215
4294967294,214
4294967294,213
4294967294,212
4294967294,211
4294967294,210
4294967294,209
4294967294,208
4294967294,207
4294967294,206
4294967294,204
4294967294,205
4294967294,203
4294967294,202
4294967294,201
4294967294,200
4294967294,199
4294967294,198
4294967294,197
4294967294,196
4294967294,195
4294967294,194
4294967294,193
4294967294,192
4294967294,159
4294967294,158
4294967294,157
4294967294,155
4294967294,156
4294967294,154
4294967294,153
4294967294,152
4294967294,151
4294967294,150
4294967294,149
4294967294,148
4294967294,147
4294967294,146
4294967294,145
4294967294,144
4294967294,143
4294967294,142
4294967294,141
4294967294,140
4294967294,138
4294967294,139
4294967294,137
4294967294,136
4294967294,135
4294967294,134
4294967294,133
4294967294,132
4294967294,131
4294967294,130
4294967294,129
4294967294,94
4294967294,128
4294967294,718
4294967294,729
4294967294,708
4294967294,706
4294967294,566
4294967294,895
4294967294,710
4294967279,218
4294967294,645
4294967294,646
4294967278,219
4294967279,217
4294967294,59
4294967294,58
4243767290,0
4294967278,218
4294967294,395
4294967294,516
4294967294,512
4294967294,534
4294967294,567
4294967294,178
4294967294,584
4294967294,605
4294967294,588
4294967294,164
4294967294,184
4294967294,463
4294967279,216
4294967294,634
4294967294,462
4294967294,461
4294967278,217
4294967294,559
4294967294,460
4294967279,215
4294967278,216
4294967294,459
4294967279,214
4294967278,215
4294967279,102
4294967294,363
4294967294,362
4294967294,361
4294967294,360
4294967294,359
4294967294,358
4294967294,357
4294967294,356
4294967294,355
4294967294,354
4294967294,353
4294967294,352
4294967294,351
4294967294,350
4294967294,349
4294967294,348
4294967294,347
4294967279,304
4294967294,346
4294967294,345
4294967294,344
4294967294,343
4294967294,342
4294967294,340
4294967294,341
4294967294,339
4294967294,338
4294967294,337
4294967294,336
4294967294,335
4294967294,334
4294967294,333
4294967294,332
4294967294,331
4294967294,330
4294967294,4
4294967294,68
21,4
4294967294,93
4294967294,95
4294967278,307
4294967294,415
4294967294,448
4294967279,101
4294967279,303
4294967278,100
4294967278,306
4294967279,100
4294967279,302
4294967278,305
4294967279,99
4294967279,301
4294967278,304
4294967279,98
4294967279,300
4294967278,303
4294967278,412
4294967279,299
4294967278,302
4294967279,96
4294967279,298
4294967278,95
4294967278,301
4294967279,95
4294967279,297
4294967278,94
4294967278,300
4294967279,94
4294967279,296
4294967278,299
4294967279,93
4294967279,295
4294967278,298
4294967279,92
4294967279,294
4294967278,297
4294967279,91
4294967278,296
4294967279,90
4294967279,292
4294967278,89
4294967294,122
4294967278,295
4294967279,89
4294967294,121
4294967279,291
4294967294,114
4294967278,87
4294967278,294
4294967279,87
4294967279,199
4294967278,86
4294967278,293
4294967279,86
4294967279,198
4294967278,292
4294967279,85
4294967279,197
4294967278,84
4294967278,198
4294967279,290
4294967278,197
4294967279,83
4294967279,289
4294967278,82
4294967278,196
4294967279,82
4294967294,545
4294967279,288
4294967278,81
4294967278,195
4294967294,119
4294967294,118
4294967294,166
4294967294,168
4294967294,585
4294967294,455
4294967294,589
4294967294,590
4294967294,562
4294967294,115
4294967294,108
4294967294,561
4294967294,553
4294967294,596
4294967294,454
4294967294,165
4294967294,162
4294967294,392
4294967294,167
4294967294,161
4294967294,709
4294967279,81
4294967279,260
4294967279,88
4294967294,1255
4294967294,1254
4294967279,414
4294967294,1253
4294967294,1252
4294967294,1251
4294967279,413
4294967294,1250
4294967294,1249
4294967294,1247
4294967294,1248
4294967294,1240
4294967294,1246
4294967294,1237
4294967294,1244
4294967279,412
4294967279,174
4294967294,1243
4294967294,1241
4294967294,1064
4294967294,1236
4294967294,1235
4294967294,1783
4294967294,1782
4294967294,1781
4294967294,1780
4294967294,1779
4294967294,1778
4294967294,1777
4294967294,1776
4294967294,1775
4294967294,1774
4294967294,1773
4294967294,1772
4294967294,1771
4294967294,1770
4294967294,1769
4294967294,1768
4294967294,1767
4294967294,1766
4294967294,1765
4294967294,1764
4294967294,1763
4294967294,1762
4294967294,1761
4294967294,1760
4294967294,1759
4294967294,1758
4294967294,1757
4294967294,1756
4294967294,1078
4294967294,1755
4294967294,1233
4294967294,1754
4294967294,1077
4294967294,1753
4294967294,1752
4294967294,1751
4294967294,1750
4294967294,1749
4294967294,1748
4294967294,1747
4294967294,1746
